NAME          BLANK   
ROWS
 N  OBJROW
 L  R0000000
COLUMNS
    C0000000  OBJROW     -578.         R0000000  448.        
    C0000001  OBJROW     -152.         R0000000  617.        
    C0000002  OBJROW     -731.         R0000000  274.        
    C0000003  OBJROW     -648.         R0000000  681.        
    C0000004  OBJROW     -859.         R0000000  498.        
    C0000005  OBJROW     -312.         R0000000  823.        
    C0000006  OBJROW     -859.         R0000000  108.        
    C0000007  OBJROW     -368.         R0000000  823.        
    C0000008  OBJROW     -547.         R0000000  890.        
    C0000009  OBJROW     -384.         R0000000  104.        
    C0000010  OBJROW     -435.         R0000000  403.        
    C0000011  OBJROW     -696.         R0000000  24.         
    C0000012  OBJROW     -339.         R0000000  9.          
    C0000013  OBJROW     -518.         R0000000  410.        
    C0000014  OBJROW     -693.         R0000000  439.        
    C0000015  OBJROW     -606.         R0000000  515.        
    C0000016  OBJROW     -77.          R0000000  40.         
    C0000017  OBJROW     -214.         R0000000  857.        
    C0000018  OBJROW     -915.         R0000000  626.        
    C0000019  OBJROW     -255.         R0000000  423.        
    C0000020  OBJROW     -91.          R0000000  764.        
    C0000021  OBJROW     -135.         R0000000  365.        
    C0000022  OBJROW     -875.         R0000000  853.        
    C0000023  OBJROW     -119.         R0000000  878.        
    C0000024  OBJROW     -75.          R0000000  915.        
    C0000025  OBJROW     -399.         R0000000  311.        
    C0000026  OBJROW     -499.         R0000000  132.        
    C0000027  OBJROW     -56.          R0000000  957.        
    C0000028  OBJROW     -651.         R0000000  45.         
    C0000029  OBJROW     -510.         R0000000  734.        
    C0000030  OBJROW     -108.         R0000000  493.        
    C0000031  OBJROW     -95.          R0000000  140.        
    C0000032  OBJROW     -844.         R0000000  470.        
    C0000033  OBJROW     -447.         R0000000  165.        
    C0000034  OBJROW     -916.         R0000000  404.        
    C0000035  OBJROW     -79.          R0000000  23.         
    C0000036  OBJROW     -932.         R0000000  116.        
    C0000037  OBJROW     -887.         R0000000  183.        
    C0000038  OBJROW     -308.         R0000000  172.        
    C0000039  OBJROW     -71.          R0000000  999.        
    C0000040  OBJROW     -410.         R0000000  876.        
    C0000041  OBJROW     -560.         R0000000  135.        
    C0000042  OBJROW     -450.         R0000000  948.        
    C0000043  OBJROW     -664.         R0000000  669.        
    C0000044  OBJROW     -915.         R0000000  373.        
    C0000045  OBJROW     -248.         R0000000  414.        
    C0000046  OBJROW     -595.         R0000000  251.        
    C0000047  OBJROW     -790.         R0000000  367.        
    C0000048  OBJROW     -541.         R0000000  764.        
    C0000049  OBJROW     -702.         R0000000  175.        
RHS
    RHS       R0000000  11551.      
BOUNDS
 BV BOUND     C0000000  1.          
 BV BOUND     C0000001  1.          
 BV BOUND     C0000002  1.          
 BV BOUND     C0000003  1.          
 BV BOUND     C0000004  1.          
 BV BOUND     C0000005  1.          
 BV BOUND     C0000006  1.          
 BV BOUND     C0000007  1.          
 BV BOUND     C0000008  1.          
 BV BOUND     C0000009  1.          
 BV BOUND     C0000010  1.          
 BV BOUND     C0000011  1.          
 BV BOUND     C0000012  1.          
 BV BOUND     C0000013  1.          
 BV BOUND     C0000014  1.          
 BV BOUND     C0000015  1.          
 BV BOUND     C0000016  1.          
 BV BOUND     C0000017  1.          
 BV BOUND     C0000018  1.          
 BV BOUND     C0000019  1.          
 BV BOUND     C0000020  1.          
 BV BOUND     C0000021  1.          
 BV BOUND     C0000022  1.          
 BV BOUND     C0000023  1.          
 BV BOUND     C0000024  1.          
 BV BOUND     C0000025  1.          
 BV BOUND     C0000026  1.          
 BV BOUND     C0000027  1.          
 BV BOUND     C0000028  1.          
 BV BOUND     C0000029  1.          
 BV BOUND     C0000030  1.          
 BV BOUND     C0000031  1.          
 BV BOUND     C0000032  1.          
 BV BOUND     C0000033  1.          
 BV BOUND     C0000034  1.          
 BV BOUND     C0000035  1.          
 BV BOUND     C0000036  1.          
 BV BOUND     C0000037  1.          
 BV BOUND     C0000038  1.          
 BV BOUND     C0000039  1.          
 BV BOUND     C0000040  1.          
 BV BOUND     C0000041  1.          
 BV BOUND     C0000042  1.          
 BV BOUND     C0000043  1.          
 BV BOUND     C0000044  1.          
 BV BOUND     C0000045  1.          
 BV BOUND     C0000046  1.          
 BV BOUND     C0000047  1.          
 BV BOUND     C0000048  1.          
 BV BOUND     C0000049  1.          
ENDATA
